clingo version 5.2.2
Reading from ...bust-coloring/instances/4-FullIns_3.lp ...
UNKNOWN

INTERRUPTED  : 1
Models       : 0+
Calls        : 1
Time         : 0.530s (Solving: 0.00s 1st Model: 0.00s Unsat: 0.00s)
CPU Time     : 0.530s
Threads      : 20       (Winner: 0)

elapsed time for 4-FullIns_3 was .539937847 seconds
